rectOffsets = 
    [|0,0,3,3|0,0,3,3|0,0,3,4|0,0,4,3|0,0,3,5|0,0,5,3|0,0,3,6|0,0,6,3|0,0,3,7|0,0,7,3|0,0,3,8|0,0,8,3|0,0,3,9|0,0,9,3|0,0,3,10|0,0,10,3|0,0,3,11|0,0,11,3|0,0,3,15|0,0,15,3|0,0,4,3|0,0,3,4|0,0,4,4|0,0,4,4|0,0,4,5|0,0,5,4|0,0,4,6|0,0,6,4|0,0,4,8|0,0,8,4|0,0,4,9|0,0,9,4|0,0,4,12|0,0,12,4|0,0,4,15|0,0,15,4|0,0,4,16|0,0,16,4|0,0,5,3|0,0,3,5|0,0,5,4|0,0,4,5|0,0,5,5|0,0,5,5|0,0,5,6|0,0,6,5|0,0,5,8|0,0,8,5|0,0,5,10|0,0,10,5|0,0,5,11|0,0,11,5|0,0,5,13|0,0,13,5|0,0,5,18|0,0,18,5|0,0,15,39|0,0,39,15|];

shape = array1d(1..58, [{1}, {2}, {3}, {4}, {5}, {6}, {7}, {8}, {9}, {10},
    {11}, {12}, {13}, {14}, {15}, {16}, {17}, {18}, {19}, {20}, {21},
    {22}, {23}, {24}, {25}, {26}, {27}, {28}, {29}, {30}, {31}, {32},
    {33}, {34}, {35}, {36}, {37}, {38}, {39}, {40}, {41}, {42}, {43},
    {44}, {45}, {46}, {47}, {48}, {49}, {50}, {51}, {52}, {53}, {54},
    {55}, {56}, {57}, {58}]);

validshapes = array1d(1..29, [{1,2}, {3,4}, {5,6}, {7,8}, {9,10}, {11,12}, {13,14},
    {15,16}, {17,18}, {19,20}, {21,22}, {23,24}, {25,26}, {27,28},
    {29,30}, {31,32}, {33,34}, {35,36}, {37,38}, {39,40}, {41,42},
    {43,44}, {45,46}, {47,48}, {49,50}, {51,52}, {53,54}, {55,56},
    {57,58}]);

dx = array1d(1..29, [3, 3, 3, 3, 3, 3, 3, 3, 3, 3, 4, 4, 4, 4, 4, 4, 4, 4,
    4, 5, 5, 5, 5, 5, 5, 5, 5, 5, 15]);

dy = array1d(1..29, [3, 4, 5, 6, 7, 8, 9, 10, 11, 15, 3, 4, 5, 6, 8, 9, 12,
    15, 16, 3, 4, 5, 6, 8, 10, 11, 13, 18, 39]);

w = 39;

n = 29;

o = 58;

